predicate gecode_cumulatives(array [int] of var int: s,array [int] of var int: d,array [int] of var int: r,var int: b);
array [1..2] of int: X_INTRODUCED_23_ = [1,-1];
array [1..5] of int: X_INTRODUCED_25_ = [1,2,2,2,1];
array [1..5] of int: X_INTRODUCED_26_ = [3,5,6,2,3];
array [1..5] of int: X_INTRODUCED_27_ = [3,1,2,2,1];
var 0..20: X_INTRODUCED_5_;
var 0..20: X_INTRODUCED_6_;
var 0..20: X_INTRODUCED_7_;
var 0..20: X_INTRODUCED_8_;
var 0..20: X_INTRODUCED_9_;
var float: X_INTRODUCED_10_:: is_defined_var;
var 0.0..20.0: X_INTRODUCED_28_:: is_defined_var:: var_is_introduced;
var -1.8..0.0: X_INTRODUCED_30_:: is_defined_var:: var_is_introduced;
var float: X_INTRODUCED_31_:: is_defined_var:: var_is_introduced;
var 0.0..20.0: X_INTRODUCED_32_:: is_defined_var:: var_is_introduced;
var -1.8..0.0: X_INTRODUCED_33_:: is_defined_var:: var_is_introduced;
var float: X_INTRODUCED_34_:: is_defined_var:: var_is_introduced;
var 0.0..20.0: X_INTRODUCED_35_:: is_defined_var:: var_is_introduced;
var -1.8..0.0: X_INTRODUCED_36_:: is_defined_var:: var_is_introduced;
var float: X_INTRODUCED_37_:: is_defined_var:: var_is_introduced;
var 0.0..20.0: X_INTRODUCED_38_:: is_defined_var:: var_is_introduced;
var -1.8..0.0: X_INTRODUCED_39_:: is_defined_var:: var_is_introduced;
var float: X_INTRODUCED_40_:: is_defined_var:: var_is_introduced;
var 0.0..20.0: X_INTRODUCED_41_:: is_defined_var:: var_is_introduced;
var -1.8..0.0: X_INTRODUCED_42_:: is_defined_var:: var_is_introduced;
var float: X_INTRODUCED_43_:: is_defined_var:: var_is_introduced;
array [1..5] of var int: s = [X_INTRODUCED_5_,X_INTRODUCED_6_,X_INTRODUCED_7_,X_INTRODUCED_8_,X_INTRODUCED_9_];
constraint int_lin_le(X_INTRODUCED_23_,[X_INTRODUCED_5_,X_INTRODUCED_9_],-3);
constraint int_lin_le(X_INTRODUCED_23_,[X_INTRODUCED_9_,X_INTRODUCED_6_],-3);
constraint gecode_cumulatives(s,X_INTRODUCED_26_,X_INTRODUCED_25_,3);
constraint gecode_cumulatives(s,X_INTRODUCED_26_,X_INTRODUCED_27_,4);
constraint float_exp(X_INTRODUCED_30_,X_INTRODUCED_31_):: defines_var(X_INTRODUCED_31_);
constraint float_exp(X_INTRODUCED_33_,X_INTRODUCED_34_):: defines_var(X_INTRODUCED_34_);
constraint float_exp(X_INTRODUCED_36_,X_INTRODUCED_37_):: defines_var(X_INTRODUCED_37_);
constraint float_exp(X_INTRODUCED_39_,X_INTRODUCED_40_):: defines_var(X_INTRODUCED_40_);
constraint float_exp(X_INTRODUCED_42_,X_INTRODUCED_43_):: defines_var(X_INTRODUCED_43_);
constraint float_lin_eq([3.0,5.0,-1.0,4.0,2.0,-1.0],[X_INTRODUCED_31_,X_INTRODUCED_34_,X_INTRODUCED_37_,X_INTRODUCED_40_,X_INTRODUCED_43_,X_INTRODUCED_10_],-0.0):: defines_var(X_INTRODUCED_10_);
constraint int2float(X_INTRODUCED_5_,X_INTRODUCED_28_):: defines_var(X_INTRODUCED_28_);
constraint float_lin_eq([-0.09,-1.0],[X_INTRODUCED_28_,X_INTRODUCED_30_],-0.0):: defines_var(X_INTRODUCED_30_);
constraint int2float(X_INTRODUCED_6_,X_INTRODUCED_32_):: defines_var(X_INTRODUCED_32_);
constraint float_lin_eq([-0.09,-1.0],[X_INTRODUCED_32_,X_INTRODUCED_33_],-0.0):: defines_var(X_INTRODUCED_33_);
constraint int2float(X_INTRODUCED_7_,X_INTRODUCED_35_):: defines_var(X_INTRODUCED_35_);
constraint float_lin_eq([-0.09,-1.0],[X_INTRODUCED_35_,X_INTRODUCED_36_],-0.0):: defines_var(X_INTRODUCED_36_);
constraint int2float(X_INTRODUCED_8_,X_INTRODUCED_38_):: defines_var(X_INTRODUCED_38_);
constraint float_lin_eq([-0.09,-1.0],[X_INTRODUCED_38_,X_INTRODUCED_39_],-0.0):: defines_var(X_INTRODUCED_39_);
constraint int2float(X_INTRODUCED_9_,X_INTRODUCED_41_):: defines_var(X_INTRODUCED_41_);
constraint float_lin_eq([-0.09,-1.0],[X_INTRODUCED_41_,X_INTRODUCED_42_],-0.0):: defines_var(X_INTRODUCED_42_);
solve  satisfy;
